n_res = 4;
rc = [ 21, 21, 19, 21 ];
n_tasks = 60;
d = [ 2, 5, 4, 9, 6, 3, 10, 10, 2, 6, 4, 6, 10, 6, 4, 7, 10, 4, 7, 7, 6, 6, 6, 3, 1, 8, 5, 6, 8, 4, 4, 7, 2, 1, 5, 3, 8, 10, 8, 2, 3, 6, 6, 1, 9, 9, 4, 10, 10, 3, 10, 7, 8, 4, 5, 2, 1, 10, 4, 5 ];
rr = [| 0, 0, 0, 3, 0, 0, 0, 0, 0, 0, 4, 0, 4, 0, 0, 8, 0, 0, 0, 0, 0, 0, 0, 0, 0, 0, 6, 0, 0, 0, 0, 0, 0, 0, 10, 0, 0, 0, 0, 4, 7, 0, 0, 0, 8, 5, 0, 0, 5, 0, 0, 0, 0, 0, 0, 0, 0, 7, 0, 0
      | 0, 0, 0, 0, 7, 2, 9, 0, 0, 0, 0, 2, 0, 0, 0, 0, 0, 5, 0, 7, 0, 0, 2, 6, 0, 0, 0, 0, 0, 4, 0, 0, 0, 0, 0, 0, 0, 10, 0, 0, 0, 2, 7, 0, 0, 0, 0, 0, 0, 0, 6, 0, 0, 0, 0, 0, 0, 0, 0, 3
      | 9, 0, 0, 0, 0, 0, 0, 0, 0, 10, 0, 0, 0, 0, 1, 0, 5, 0, 5, 0, 0, 9, 0, 0, 0, 0, 0, 0, 9, 0, 4, 0, 7, 0, 0, 0, 1, 0, 0, 0, 0, 0, 0, 0, 0, 0, 10, 0, 0, 4, 0, 8, 0, 0, 3, 10, 8, 0, 5, 0
      | 0, 1, 10, 0, 0, 0, 0, 8, 6, 0, 0, 0, 0, 1, 0, 0, 0, 0, 0, 0, 6, 0, 0, 0, 10, 8, 0, 9, 0, 0, 0, 8, 0, 2, 0, 2, 0, 0, 2, 0, 0, 0, 0, 1, 0, 0, 0, 6, 0, 0, 0, 0, 2, 7, 0, 0, 0, 0, 0, 0 |];
suc = [ { 7, 35, 45 },
       { 8 },
       { 4, 9, 31 },
       { 5, 6, 8 },
       { 44, 58 },
       { 10, 32, 37 },
       { 16, 30, 58 },
       { 15, 19 },
       { 11, 12, 43 },
       { 13, 14 },
       { 22, 30 },
       { 17, 26, 36 },
       { 16 },
       { 20 },
       { 18, 26 },
       { 25, 28 },
       { 22, 28 },
       { 38 },
       { 23, 29, 60 },
       { 21, 43, 47 },
       { 27, 40, 41 },
       { 34, 37, 57 },
       { 24, 47 },
       { 58 },
       { 29, 36, 54 },
       { 38 },
       { 44 },
       { 51 },
       { 48 },
       { 32, 36, 42 },
       { 33, 49, 53 },
       { 34 },
       { 35, 39, 41 },
       { 51, 53 },
       { 50 },
       { 46 },
       { 40, 42 },
       { 47, 50 },
       { 52, 60 },
       { 50, 51 },
       { 45, 46, 48 },
       { 53 },
       { 44, 46, 55 },
       { 49 },
       { 52, 57 },
       { 56 },
       { 48 },
       { 55 },
       { 57 },
       { 54 },
       { 52, 54 },
       { 59 },
       { 55 },
       { 56 },
       { 59 },
       { 60 },
       { 59 },
       {  },
       {  },
       {  } ];
